
Gurobi 11.0.3 (linux64) logging started Sun Nov 24 23:59:09 2024

Set parameter LogFile to value "/home/yihong/Coding/OR_SUC/SUC_results_bigM100000_thread4/case24_ieee_rts_theta0.5_epsilon0.025_gurobi_seed1470000_num_gen100_N_WDR100_load_scaling_factor1_proposed_T8quadra_cost.txt"
Set parameter TimeLimit to value 3600
Gurobi Optimizer version 11.0.3 build v11.0.3rc0 (linux64 - "Ubuntu 20.04.6 LTS")

CPU model: AMD EPYC 7532 32-Core Processor, instruction set [SSE2|AVX|AVX2]
Thread count: 64 physical cores, 128 logical processors, using up to 4 threads

Optimize a model with 16982 rows, 10021 columns and 235066 nonzeros
Model fingerprint: 0xe71d2306
Model has 800 quadratic constraints
Variable types: 9221 continuous, 800 integer (800 binary)
Coefficient statistics:
  Matrix range     [3e-04, 2e+03]
  QMatrix range    [2e-03, 8e-03]
  QLMatrix range   [2e-01, 6e+01]
  Objective range  [1e+00, 1e+00]
  Bounds range     [1e+00, 1e+00]
  RHS range        [1e+00, 9e+03]
Presolve removed 13893 rows and 4493 columns
Presolve time: 0.07s
Presolved: 3089 rows, 5528 columns, 20350 nonzeros
Presolved model has 800 quadratic constraint(s)
Variable types: 4728 continuous, 800 integer (800 binary)

Root relaxation: objective 2.333067e+04, 2605 iterations, 0.04 seconds (0.05 work units)

    Nodes    |    Current Node    |     Objective Bounds      |     Work
 Expl Unexpl |  Obj  Depth IntInf | Incumbent    BestBd   Gap | It/Node Time

     0     0 23330.6746    0    8          - 23330.6746      -     -    0s
     0     0 130882.590    0  199          - 130882.590      -     -    0s
     0     0 130887.400    0  199          - 130887.400      -     -    0s
     0     0 208531.656    0  112          - 208531.656      -     -    0s
     0     0 208536.921    0  112          - 208536.921      -     -    0s
     0     0 208625.531    0   72          - 208625.531      -     -    0s
     0     0 208628.419    0   72          - 208628.419      -     -    0s
     0     0 208628.419    0   72          - 208628.419      -     -    0s
     0     0 208628.683    0   72          - 208628.683      -     -    0s
     0     2 208628.683    0   72          - 208628.683      -     -    0s
H  158   187                    209154.44847 208638.121  0.25%  12.7    1s
*  158   187              53    209154.44847 208638.121  0.25%  12.7    1s
H  273   285                    208700.95739 208641.477  0.03%  12.7    1s
*  273   285              42    208700.95739 208641.477  0.03%  12.7    1s

Cutting planes:
  Gomory: 26
  Implied bound: 177
  MIR: 32
  Flow cover: 75

Explored 364 nodes (11322 simplex iterations) in 1.68 seconds (2.16 work units)
Thread count was 4 (of 128 available processors)

Solution count 3: 208701 208701 209154 

Optimal solution found (tolerance 1.00e-03)
Warning: max constraint violation (3.0762e-07) exceeds tolerance
Best objective 2.087009573891e+05, best bound 2.086425749304e+05, gap 0.0280%
